; SWAP2 POP POP SWAP1 POP POP => POP ADDMOD POP
(set-option :produce-proofs true)
; 
(set-info :status unknown)
(declare-fun storage_t ((_ BitVec 256) (_ BitVec 256) (_ BitVec 256) (_ BitVec 256) Int (_ BitVec 256)) (_ BitVec 256))
(declare-fun storage_s ((_ BitVec 256) (_ BitVec 256) (_ BitVec 256) (_ BitVec 256) Int (_ BitVec 256)) (_ BitVec 256))
(declare-fun exc_halt_t (Int) Bool)
(declare-fun exc_halt_s (Int) Bool)
(declare-fun sc_t (Int) (_ BitVec 6))
(declare-fun stack_t ((_ BitVec 256) (_ BitVec 256) (_ BitVec 256) (_ BitVec 256) Int (_ BitVec 6)) (_ BitVec 256))
(declare-fun stack_s ((_ BitVec 256) (_ BitVec 256) (_ BitVec 256) (_ BitVec 256) Int (_ BitVec 6)) (_ BitVec 256))
(declare-fun sc_s (Int) (_ BitVec 6))
(declare-fun used_gas_t ((_ BitVec 256) (_ BitVec 256) (_ BitVec 256) (_ BitVec 256) Int) Int)
(declare-fun used_gas_s ((_ BitVec 256) (_ BitVec 256) (_ BitVec 256) (_ BitVec 256) Int) Int)
(assert
 (exists ((x_0 (_ BitVec 256)) (x_1 (_ BitVec 256)) (x_2 (_ BitVec 256)) (x_3 (_ BitVec 256)) )(let (($x11015 (forall ((w (_ BitVec 256)) )(let ((?x10017 (storage_t x_0 x_1 x_2 x_3 3 w)))
 (let ((?x5396 (storage_s x_0 x_1 x_2 x_3 6 w)))
 (= ?x5396 ?x10017))))
 ))
 (let (($x2075 (exc_halt_t 3)))
 (let (($x772 (exc_halt_s 6)))
 (let (($x7199 (= $x772 $x2075)))
 (let (($x7578 (forall ((n (_ BitVec 6)) )(let ((?x4922 (stack_t x_0 x_1 x_2 x_3 3 n)))
 (let ((?x3642 (stack_s x_0 x_1 x_2 x_3 6 n)))
 (let (($x3816 (= ?x3642 ?x4922)))
 (or $x3816 (bvsle (sc_t 3) n))))))
 ))
 (let ((?x5512 (sc_t 3)))
 (let ((?x926 (sc_s 6)))
 (let (($x8518 (= ?x926 ?x5512)))
 (let ((?x2835 (used_gas_t x_0 x_1 x_2 x_3 0)))
 (let ((?x1698 (used_gas_s x_0 x_1 x_2 x_3 0)))
 (let (($x6189 (= ?x1698 ?x2835)))
 (let (($x7742 (forall ((w (_ BitVec 256)) )(let ((?x9104 (storage_t x_0 x_1 x_2 x_3 0 w)))
 (let ((?x6981 (storage_s x_0 x_1 x_2 x_3 0 w)))
 (= ?x6981 ?x9104))))
 ))
 (let (($x56 (exc_halt_t 0)))
 (let (($x57 (exc_halt_s 0)))
 (let (($x58 (= $x57 $x56)))
 (let (($x6743 (forall ((n (_ BitVec 6)) )(let ((?x4058 (stack_t x_0 x_1 x_2 x_3 0 n)))
 (let ((?x1069 (stack_s x_0 x_1 x_2 x_3 0 n)))
 (let (($x8474 (= ?x1069 ?x4058)))
 (or $x8474 (bvsle (sc_t 0) n))))))
 ))
 (let ((?x63 (sc_t 0)))
 (let ((?x72 (sc_s 0)))
 (let (($x73 (= ?x72 ?x63)))
 (let (($x3252 (= $x2075 (or (exc_halt_t 2) (not (bvsle (_ bv0 6) (bvadd (_ bv63 6) (sc_t 2))))))))
 (let (($x9588 (forall ((w (_ BitVec 256)) )(let ((?x700 (storage_t x_0 x_1 x_2 x_3 2 w)))
 (let ((?x10017 (storage_t x_0 x_1 x_2 x_3 3 w)))
 (= ?x10017 ?x700))))
 ))
 (let (($x4645 (forall ((n (_ BitVec 6)) )(let ((?x9787 (stack_t x_0 x_1 x_2 x_3 2 n)))
 (let ((?x4922 (stack_t x_0 x_1 x_2 x_3 3 n)))
 (or (bvsle (bvadd (_ bv63 6) (sc_t 2)) n) (= ?x4922 ?x9787)))))
 ))
 (let (($x4567 (= (used_gas_t x_0 x_1 x_2 x_3 3) (+ 2 (used_gas_t x_0 x_1 x_2 x_3 2)))))
 (let (($x2810 (exc_halt_t 2)))
 (let (($x5211 (= $x2810 (or (exc_halt_t 1) (not (bvsle (_ bv0 6) (bvadd (_ bv61 6) (sc_t 1))))))))
 (let (($x11013 (forall ((w (_ BitVec 256)) )(let ((?x3790 (storage_t x_0 x_1 x_2 x_3 1 w)))
 (let ((?x700 (storage_t x_0 x_1 x_2 x_3 2 w)))
 (= ?x700 ?x3790))))
 ))
 (let (($x9222 (forall ((n (_ BitVec 6)) )(let ((?x3622 (stack_t x_0 x_1 x_2 x_3 1 n)))
 (let ((?x9787 (stack_t x_0 x_1 x_2 x_3 2 n)))
 (or (= ?x9787 ?x3622) (bvsle (bvadd (_ bv61 6) (sc_t 1)) n)))))
 ))
 (let ((?x7854 (used_gas_t x_0 x_1 x_2 x_3 2)))
 (let ((?x11292 (sc_t 1)))
 (let ((?x7755 (bvadd (_ bv61 6) ?x11292)))
 (let ((?x4120 (stack_t x_0 x_1 x_2 x_3 1 ?x7755)))
 (let ((?x2145 (bvadd (concat (_ bv0 1) (stack_t x_0 x_1 x_2 x_3 1 (bvadd (_ bv63 6) ?x11292))) (concat (_ bv0 1) (stack_t x_0 x_1 x_2 x_3 1 (bvadd (_ bv62 6) ?x11292))))))
 (let (($x1953 (= (stack_t x_0 x_1 x_2 x_3 2 (bvadd (_ bv63 6) (sc_t 2))) (ite (= ?x4120 (_ bv0 256)) (_ bv0 256) ((_ extract 255 0) (bvurem_i ?x2145 (concat (_ bv0 1) ?x4120)))))))
 (let (($x9116 (forall ((w (_ BitVec 256)) )(let ((?x9104 (storage_t x_0 x_1 x_2 x_3 0 w)))
 (let ((?x3790 (storage_t x_0 x_1 x_2 x_3 1 w)))
 (= ?x3790 ?x9104))))
 ))
 (let (($x376 (forall ((n (_ BitVec 6)) )(let ((?x4058 (stack_t x_0 x_1 x_2 x_3 0 n)))
 (let ((?x3622 (stack_t x_0 x_1 x_2 x_3 1 n)))
 (or (bvsle (bvadd (_ bv63 6) (sc_t 0)) n) (= ?x3622 ?x4058)))))
 ))
 (let (($x1961 (= $x772 (or (exc_halt_s 5) (not (bvsle (_ bv0 6) (bvadd (_ bv63 6) (sc_s 5))))))))
 (let (($x9956 (forall ((w (_ BitVec 256)) )(let ((?x2442 (storage_s x_0 x_1 x_2 x_3 5 w)))
 (let ((?x5396 (storage_s x_0 x_1 x_2 x_3 6 w)))
 (= ?x5396 ?x2442))))
 ))
 (let (($x2395 (forall ((n (_ BitVec 6)) )(let ((?x5303 (stack_s x_0 x_1 x_2 x_3 5 n)))
 (let ((?x3642 (stack_s x_0 x_1 x_2 x_3 6 n)))
 (or (= ?x3642 ?x5303) (bvsle (bvadd (_ bv63 6) (sc_s 5)) n)))))
 ))
 (let (($x11561 (= (used_gas_s x_0 x_1 x_2 x_3 6) (+ 2 (used_gas_s x_0 x_1 x_2 x_3 5)))))
 (let (($x3979 (exc_halt_s 5)))
 (let (($x9312 (= $x3979 (or (exc_halt_s 4) (not (bvsle (_ bv0 6) (bvadd (_ bv63 6) (sc_s 4))))))))
 (let (($x10797 (forall ((w (_ BitVec 256)) )(let ((?x8150 (storage_s x_0 x_1 x_2 x_3 4 w)))
 (let ((?x2442 (storage_s x_0 x_1 x_2 x_3 5 w)))
 (= ?x2442 ?x8150))))
 ))
 (let (($x6535 (forall ((n (_ BitVec 6)) )(let ((?x10379 (stack_s x_0 x_1 x_2 x_3 4 n)))
 (let ((?x5303 (stack_s x_0 x_1 x_2 x_3 5 n)))
 (or (= ?x5303 ?x10379) (bvsle (bvadd (_ bv63 6) (sc_s 4)) n)))))
 ))
 (let ((?x6958 (used_gas_s x_0 x_1 x_2 x_3 5)))
 (let (($x11568 (exc_halt_s 4)))
 (let (($x6681 (= $x11568 (or (exc_halt_s 3) (not (bvsle (_ bv0 6) (bvadd (_ bv62 6) (sc_s 3))))))))
 (let (($x9324 (forall ((w (_ BitVec 256)) )(let ((?x4579 (storage_s x_0 x_1 x_2 x_3 3 w)))
 (let ((?x8150 (storage_s x_0 x_1 x_2 x_3 4 w)))
 (= ?x8150 ?x4579))))
 ))
 (let (($x3926 (forall ((n (_ BitVec 6)) )(let ((?x5127 (stack_s x_0 x_1 x_2 x_3 3 n)))
 (let ((?x10379 (stack_s x_0 x_1 x_2 x_3 4 n)))
 (or (bvsle (bvadd (_ bv62 6) (sc_s 3)) n) (= ?x10379 ?x5127)))))
 ))
 (let ((?x7798 (used_gas_s x_0 x_1 x_2 x_3 4)))
 (let (($x387 (= (stack_s x_0 x_1 x_2 x_3 4 (bvadd (_ bv62 6) (sc_s 4))) (stack_s x_0 x_1 x_2 x_3 3 (bvadd (_ bv63 6) (sc_s 3))))))
 (let (($x2133 (= (stack_s x_0 x_1 x_2 x_3 4 (bvadd (_ bv63 6) (sc_s 4))) (stack_s x_0 x_1 x_2 x_3 3 (bvadd (_ bv62 6) (sc_s 3))))))
 (let (($x292 (exc_halt_s 3)))
 (let (($x4047 (= $x292 (or (exc_halt_s 2) (not (bvsle (_ bv0 6) (bvadd (_ bv63 6) (sc_s 2))))))))
 (let (($x9101 (forall ((w (_ BitVec 256)) )(let ((?x7024 (storage_s x_0 x_1 x_2 x_3 2 w)))
 (let ((?x4579 (storage_s x_0 x_1 x_2 x_3 3 w)))
 (= ?x4579 ?x7024))))
 ))
 (let (($x8814 (forall ((n (_ BitVec 6)) )(let ((?x3104 (stack_s x_0 x_1 x_2 x_3 2 n)))
 (let ((?x5127 (stack_s x_0 x_1 x_2 x_3 3 n)))
 (or (= ?x5127 ?x3104) (bvsle (bvadd (_ bv63 6) (sc_s 2)) n)))))
 ))
 (let ((?x2671 (used_gas_s x_0 x_1 x_2 x_3 3)))
 (let (($x247 (exc_halt_s 2)))
 (let (($x11639 (= $x247 (or (exc_halt_s 1) (not (bvsle (_ bv0 6) (bvadd (_ bv63 6) (sc_s 1))))))))
 (let (($x8033 (forall ((w (_ BitVec 256)) )(let ((?x4087 (storage_s x_0 x_1 x_2 x_3 1 w)))
 (let ((?x7024 (storage_s x_0 x_1 x_2 x_3 2 w)))
 (= ?x7024 ?x4087))))
 ))
 (let (($x6993 (forall ((n (_ BitVec 6)) )(let ((?x6499 (stack_s x_0 x_1 x_2 x_3 1 n)))
 (let ((?x3104 (stack_s x_0 x_1 x_2 x_3 2 n)))
 (or (bvsle (bvadd (_ bv63 6) (sc_s 1)) n) (= ?x3104 ?x6499)))))
 ))
 (let ((?x935 (used_gas_s x_0 x_1 x_2 x_3 2)))
 (let (($x8904 (forall ((w (_ BitVec 256)) )(let ((?x6981 (storage_s x_0 x_1 x_2 x_3 0 w)))
 (let ((?x4087 (storage_s x_0 x_1 x_2 x_3 1 w)))
 (= ?x4087 ?x6981))))
 ))
 (let (($x6704 (forall ((n (_ BitVec 6)) )(let ((?x1069 (stack_s x_0 x_1 x_2 x_3 0 n)))
 (let ((?x6499 (stack_s x_0 x_1 x_2 x_3 1 n)))
 (or (= ?x6499 ?x1069) (bvsle (bvadd (_ bv61 6) (sc_s 0)) n)))))
 ))
 (let (($x11390 (= (stack_s x_0 x_1 x_2 x_3 1 (bvadd (_ bv62 6) (sc_s 1))) (stack_s x_0 x_1 x_2 x_3 0 (bvadd (_ bv62 6) ?x72)))))
 (let (($x11468 (= (stack_s x_0 x_1 x_2 x_3 1 (bvadd (_ bv61 6) (sc_s 1))) (stack_s x_0 x_1 x_2 x_3 0 (bvadd (_ bv63 6) ?x72)))))
 (let (($x4140 (= (stack_s x_0 x_1 x_2 x_3 1 (bvadd (_ bv63 6) (sc_s 1))) (stack_s x_0 x_1 x_2 x_3 0 (bvadd (_ bv61 6) ?x72)))))
 (let (($x4634 (forall ((w (_ BitVec 256)) )(let ((?x6981 (storage_s x_0 x_1 x_2 x_3 0 w)))
 (= ?x6981 (_ bv0 256))))
 ))
 (let (($x5567 (= ?x1698 0)))
 (let (($x2656 (= (stack_s x_0 x_1 x_2 x_3 0 (_ bv3 6)) x_3)))
 (let (($x10456 (= (stack_s x_0 x_1 x_2 x_3 0 (_ bv2 6)) x_2)))
 (let (($x10200 (= (stack_s x_0 x_1 x_2 x_3 0 (_ bv1 6)) x_1)))
 (let (($x11444 (= (stack_s x_0 x_1 x_2 x_3 0 (_ bv0 6)) x_0)))
 (let (($x5840 (= ?x72 (_ bv4 6))))
 (and $x5840 $x11444 $x10200 $x10456 $x2656 (not $x57) $x5567 $x4634 $x4140 $x11468 $x11390 (= (used_gas_s x_0 x_1 x_2 x_3 1) (+ 3 ?x1698)) (= (sc_s 1) ?x72) $x6704 $x8904 (= (exc_halt_s 1) (or $x57 (not (bvsle (_ bv0 6) (bvadd (_ bv61 6) ?x72))))) (= ?x935 (+ 2 (used_gas_s x_0 x_1 x_2 x_3 1))) (= (sc_s 2) (bvadd (_ bv63 6) (sc_s 1))) $x6993 $x8033 $x11639 (= ?x2671 (+ 2 ?x935)) (= (sc_s 3) (bvadd (_ bv63 6) (sc_s 2))) $x8814 $x9101 $x4047 $x2133 $x387 (= ?x7798 (+ 3 ?x2671)) (= (sc_s 4) (sc_s 3)) $x3926 $x9324 $x6681 (= ?x6958 (+ 2 ?x7798)) (= (sc_s 5) (bvadd (_ bv63 6) (sc_s 4))) $x6535 $x10797 $x9312 $x11561 (= ?x926 (bvadd (_ bv63 6) (sc_s 5))) $x2395 $x9956 $x1961 (= (used_gas_t x_0 x_1 x_2 x_3 1) (+ 2 ?x2835)) (= ?x11292 (bvadd (_ bv63 6) ?x63)) $x376 $x9116 (= (exc_halt_t 1) (or $x56 (not (bvsle (_ bv0 6) (bvadd (_ bv63 6) ?x63))))) $x1953 (= ?x7854 (+ 8 (used_gas_t x_0 x_1 x_2 x_3 1))) (= (sc_t 2) (bvadd (_ bv62 6) ?x11292)) $x9222 $x11013 $x5211 $x4567 (= ?x5512 (bvadd (_ bv63 6) (sc_t 2))) $x4645 $x9588 $x3252 $x73 $x6743 $x58 $x7742 $x6189 (not (and $x8518 $x7578 $x7199 $x11015)))))))))))))))))))))))))))))))))))))))))))))))))))))))))))))))))))))))))))))
 )
(check-sat)
(get-proof)
